c 1 Root
c 2 Mutations19
c 3 m77
c 4 Mutations17
c 5 m68
c 6 m69
c 7 m70
c 8 m71
c 9 Mutations18
c 10 m72
c 11 m73
c 12 m74
c 13 m75
c 14 m76
c 15 Mutations15
c 16 m62
c 17 m63
c 18 m64
c 19 m65
c 20 m66
c 21 Mutations16
c 22 m67
c 23 Mutations13
c 24 m53
c 25 m54
c 26 m55
c 27 m56
c 28 m57
c 29 Mutations14
c 30 m58
c 31 m59
c 32 m60
c 33 m61
c 34 Mutations11
c 35 m44
c 36 m45
c 37 m46
c 38 m47
c 39 m48
c 40 Mutations12
c 41 m49
c 42 m50
c 43 m51
c 44 m52
c 45 Mutations10
c 46 m40
c 47 m41
c 48 m42
c 49 m43
c 50 Mutations0
c 51 Mutations1
c 52 Mutations2
c 53 Mutations3
c 54 Mutations4
c 55 Mutations5
c 56 Mutations6
c 57 Mutations7
c 58 Mutations8
c 59 Mutations9
c 60 Mutations20
c 61 Mutations21
c 62 Mutations22
c 63 Mutations23
c 64 Mutations24
c 65 Mutations25
c 66 Mutations26
c 67 Mutations27
c 68 Mutations28
c 69 Mutations29
c 70 Mutations30
c 71 Mutations31
c 72 Mutations32
c 73 m0
c 74 m1
c 75 m2
c 76 m3
c 77 m4
c 78 m5
c 79 m6
c 80 m7
c 81 m8
c 82 m9
c 83 m10
c 84 m11
c 85 m12
c 86 m13
c 87 m14
c 88 m15
c 89 m16
c 90 m17
c 91 m18
c 92 m19
c 93 m20
c 94 m21
c 95 m22
c 96 m23
c 97 m24
c 98 m25
c 99 m26
c 100 m27
c 101 m28
c 102 m29
c 103 m30
c 104 m31
c 105 m32
c 106 m33
c 107 m34
c 108 m35
c 109 m36
c 110 m37
c 111 m38
c 112 m39
c 113 m122
c 114 m123
c 115 m124
c 116 m125
c 117 m126
c 118 m127
c 119 m118
c 120 m119
c 121 m120
c 122 m121
c 123 m112
c 124 m113
c 125 m114
c 126 m115
c 127 m116
c 128 m117
c 129 m103
c 130 m104
c 131 m105
c 132 m106
c 133 m107
c 134 m108
c 135 m109
c 136 m110
c 137 m111
c 138 m97
c 139 m98
c 140 m99
c 141 m100
c 142 m101
c 143 m102
c 144 m88
c 145 m89
c 146 m90
c 147 m91
c 148 m92
c 149 m93
c 150 m94
c 151 m95
c 152 m96
c 153 m78
c 154 m79
c 155 m80
c 156 m81
c 157 m82
c 158 m83
c 159 m84
c 160 m85
c 161 m86
c 162 m87
p cnf 162 419
1 0
2 -3 0
3 -2 0
4 -5 0
4 -6 0
4 -7 0
4 -8 0
5 6 7 8 -4 0
-5 -6 0
-5 -7 0
-5 -8 0
-6 -7 0
-6 -8 0
-7 -8 0
9 -10 0
9 -11 0
9 -12 0
9 -13 0
9 -14 0
10 11 12 13 14 -9 0
-10 -11 0
-10 -12 0
-10 -13 0
-10 -14 0
-11 -12 0
-11 -13 0
-11 -14 0
-12 -13 0
-12 -14 0
-13 -14 0
15 -16 0
15 -17 0
15 -18 0
15 -19 0
15 -20 0
16 17 18 19 20 -15 0
-16 -17 0
-16 -18 0
-16 -19 0
-16 -20 0
-17 -18 0
-17 -19 0
-17 -20 0
-18 -19 0
-18 -20 0
-19 -20 0
21 -22 0
22 -21 0
23 -24 0
23 -25 0
23 -26 0
23 -27 0
23 -28 0
24 25 26 27 28 -23 0
-24 -25 0
-24 -26 0
-24 -27 0
-24 -28 0
-25 -26 0
-25 -27 0
-25 -28 0
-26 -27 0
-26 -28 0
-27 -28 0
29 -30 0
29 -31 0
29 -32 0
29 -33 0
30 31 32 33 -29 0
-30 -31 0
-30 -32 0
-30 -33 0
-31 -32 0
-31 -33 0
-32 -33 0
34 -35 0
34 -36 0
34 -37 0
34 -38 0
34 -39 0
35 36 37 38 39 -34 0
-35 -36 0
-35 -37 0
-35 -38 0
-35 -39 0
-36 -37 0
-36 -38 0
-36 -39 0
-37 -38 0
-37 -39 0
-38 -39 0
40 -41 0
40 -42 0
40 -43 0
40 -44 0
41 42 43 44 -40 0
-41 -42 0
-41 -43 0
-41 -44 0
-42 -43 0
-42 -44 0
-43 -44 0
45 -46 0
45 -47 0
45 -48 0
45 -49 0
46 47 48 49 -45 0
-46 -47 0
-46 -48 0
-46 -49 0
-47 -48 0
-47 -49 0
-48 -49 0
1 -50 0
1 -51 0
1 -52 0
1 -53 0
1 -54 0
1 -55 0
1 -56 0
1 -57 0
1 -58 0
1 -59 0
1 -45 0
1 -34 0
1 -40 0
1 -23 0
1 -29 0
1 -15 0
1 -21 0
1 -4 0
1 -9 0
1 -2 0
1 -60 0
1 -61 0
1 -62 0
1 -63 0
1 -64 0
1 -65 0
1 -66 0
1 -67 0
1 -68 0
1 -69 0
1 -70 0
1 -71 0
1 -72 0
50 -73 0
50 -74 0
50 -75 0
50 -76 0
50 -77 0
73 74 75 76 77 -50 0
-73 -74 0
-73 -75 0
-73 -76 0
-73 -77 0
-74 -75 0
-74 -76 0
-74 -77 0
-75 -76 0
-75 -77 0
-76 -77 0
51 -78 0
51 -79 0
51 -80 0
51 -81 0
51 -82 0
78 79 80 81 82 -51 0
-78 -79 0
-78 -80 0
-78 -81 0
-78 -82 0
-79 -80 0
-79 -81 0
-79 -82 0
-80 -81 0
-80 -82 0
-81 -82 0
52 -83 0
83 -52 0
53 -84 0
53 -85 0
53 -86 0
53 -87 0
53 -88 0
84 85 86 87 88 -53 0
-84 -85 0
-84 -86 0
-84 -87 0
-84 -88 0
-85 -86 0
-85 -87 0
-85 -88 0
-86 -87 0
-86 -88 0
-87 -88 0
54 -89 0
89 -54 0
55 -90 0
55 -91 0
55 -92 0
55 -93 0
55 -94 0
90 91 92 93 94 -55 0
-90 -91 0
-90 -92 0
-90 -93 0
-90 -94 0
-91 -92 0
-91 -93 0
-91 -94 0
-92 -93 0
-92 -94 0
-93 -94 0
56 -95 0
56 -96 0
56 -97 0
56 -98 0
95 96 97 98 -56 0
-95 -96 0
-95 -97 0
-95 -98 0
-96 -97 0
-96 -98 0
-97 -98 0
57 -99 0
57 -100 0
57 -101 0
57 -102 0
57 -103 0
99 100 101 102 103 -57 0
-99 -100 0
-99 -101 0
-99 -102 0
-99 -103 0
-100 -101 0
-100 -102 0
-100 -103 0
-101 -102 0
-101 -103 0
-102 -103 0
58 -104 0
58 -105 0
58 -106 0
58 -107 0
104 105 106 107 -58 0
-104 -105 0
-104 -106 0
-104 -107 0
-105 -106 0
-105 -107 0
-106 -107 0
59 -108 0
59 -109 0
59 -110 0
59 -111 0
59 -112 0
108 109 110 111 112 -59 0
-108 -109 0
-108 -110 0
-108 -111 0
-108 -112 0
-109 -110 0
-109 -111 0
-109 -112 0
-110 -111 0
-110 -112 0
-111 -112 0
71 -113 0
71 -114 0
71 -115 0
71 -116 0
71 -117 0
113 114 115 116 117 -71 0
-113 -114 0
-113 -115 0
-113 -116 0
-113 -117 0
-114 -115 0
-114 -116 0
-114 -117 0
-115 -116 0
-115 -117 0
-116 -117 0
72 -118 0
118 -72 0
70 -119 0
70 -120 0
70 -121 0
70 -122 0
119 120 121 122 -70 0
-119 -120 0
-119 -121 0
-119 -122 0
-120 -121 0
-120 -122 0
-121 -122 0
68 -123 0
123 -68 0
69 -124 0
69 -125 0
69 -126 0
69 -127 0
69 -128 0
124 125 126 127 128 -69 0
-124 -125 0
-124 -126 0
-124 -127 0
-124 -128 0
-125 -126 0
-125 -127 0
-125 -128 0
-126 -127 0
-126 -128 0
-127 -128 0
66 -129 0
66 -130 0
66 -131 0
66 -132 0
129 130 131 132 -66 0
-129 -130 0
-129 -131 0
-129 -132 0
-130 -131 0
-130 -132 0
-131 -132 0
67 -133 0
67 -134 0
67 -135 0
67 -136 0
67 -137 0
133 134 135 136 137 -67 0
-133 -134 0
-133 -135 0
-133 -136 0
-133 -137 0
-134 -135 0
-134 -136 0
-134 -137 0
-135 -136 0
-135 -137 0
-136 -137 0
64 -138 0
138 -64 0
65 -139 0
65 -140 0
65 -141 0
65 -142 0
65 -143 0
139 140 141 142 143 -65 0
-139 -140 0
-139 -141 0
-139 -142 0
-139 -143 0
-140 -141 0
-140 -142 0
-140 -143 0
-141 -142 0
-141 -143 0
-142 -143 0
62 -144 0
62 -145 0
62 -146 0
62 -147 0
144 145 146 147 -62 0
-144 -145 0
-144 -146 0
-144 -147 0
-145 -146 0
-145 -147 0
-146 -147 0
63 -148 0
63 -149 0
63 -150 0
63 -151 0
63 -152 0
148 149 150 151 152 -63 0
-148 -149 0
-148 -150 0
-148 -151 0
-148 -152 0
-149 -150 0
-149 -151 0
-149 -152 0
-150 -151 0
-150 -152 0
-151 -152 0
60 -153 0
60 -154 0
60 -155 0
60 -156 0
60 -157 0
153 154 155 156 157 -60 0
-153 -154 0
-153 -155 0
-153 -156 0
-153 -157 0
-154 -155 0
-154 -156 0
-154 -157 0
-155 -156 0
-155 -157 0
-156 -157 0
61 -158 0
61 -159 0
61 -160 0
61 -161 0
61 -162 0
158 159 160 161 162 -61 0
-158 -159 0
-158 -160 0
-158 -161 0
-158 -162 0
-159 -160 0
-159 -161 0
-159 -162 0
-160 -161 0
-160 -162 0
-161 -162 0
